c colouring generated by benchmark framework
p edge 500 3555
v 1 2
v 2 11
v 3 1
v 4 12
v 5 9
v 6 8
v 7 9
v 8 1
v 9 7
v 10 11
v 11 5
v 12 1
v 13 1
v 14 1
v 15 5
v 16 10
v 17 1
v 18 8
v 19 11
v 20 3
v 21 8
v 22 1
v 23 4
v 24 10
v 25 2
v 26 3
v 27 4
v 28 0
v 29 3
v 30 6
v 31 0
v 32 11
v 33 1
v 34 5
v 35 6
v 36 3
v 37 4
v 38 6
v 39 1
v 40 8
v 41 12
v 42 2
v 43 5
v 44 5
v 45 2
v 46 12
v 47 3
v 48 0
v 49 10
v 50 8
v 51 2
v 52 4
v 53 0
v 54 5
v 55 9
v 56 11
v 57 6
v 58 2
v 59 9
v 60 7
v 61 6
v 62 8
v 63 1
v 64 7
v 65 1
v 66 3
v 67 3
v 68 4
v 69 4
v 70 9
v 71 12
v 72 0
v 73 2
v 74 5
v 75 0
v 76 9
v 77 12
v 78 11
v 79 3
v 80 11
v 81 0
v 82 10
v 83 8
v 84 1
v 85 11
v 86 1
v 87 7
v 88 8
v 89 3
v 90 0
v 91 2
v 92 1
v 93 2
v 94 0
v 95 9
v 96 9
v 97 12
v 98 4
v 99 4
v 100 12
v 101 4
v 102 3
v 103 11
v 104 7
v 105 1
v 106 9
v 107 9
v 108 8
v 109 6
v 110 2
v 111 1
v 112 4
v 113 5
v 114 8
v 115 3
v 116 2
v 117 1
v 118 0
v 119 7
v 120 1
v 121 0
v 122 1
v 123 8
v 124 5
v 125 9
v 126 2
v 127 12
v 128 4
v 129 7
v 130 0
v 131 0
v 132 12
v 133 5
v 134 9
v 135 8
v 136 0
v 137 3
v 138 0
v 139 1
v 140 8
v 141 12
v 142 7
v 143 0
v 144 6
v 145 10
v 146 11
v 147 5
v 148 4
v 149 1
v 150 7
v 151 8
v 152 2
v 153 5
v 154 3
v 155 0
v 156 5
v 157 11
v 158 8
v 159 1
v 160 5
v 161 12
v 162 2
v 163 10
v 164 10
v 165 8
v 166 2
v 167 2
v 168 9
v 169 10
v 170 9
v 171 0
v 172 3
v 173 3
v 174 3
v 175 2
v 176 12
v 177 2
v 178 6
v 179 5
v 180 7
v 181 2
v 182 0
v 183 1
v 184 9
v 185 8
v 186 9
v 187 5
v 188 2
v 189 1
v 190 11
v 191 5
v 192 10
v 193 1
v 194 6
v 195 1
v 196 10
v 197 3
v 198 7
v 199 3
v 200 0
v 201 9
v 202 0
v 203 6
v 204 3
v 205 11
v 206 3
v 207 4
v 208 9
v 209 12
v 210 9
v 211 4
v 212 3
v 213 4
v 214 0
v 215 7
v 216 11
v 217 6
v 218 5
v 219 11
v 220 1
v 221 6
v 222 1
v 223 9
v 224 0
v 225 2
v 226 2
v 227 9
v 228 5
v 229 2
v 230 0
v 231 10
v 232 3
v 233 12
v 234 6
v 235 5
v 236 5
v 237 7
v 238 0
v 239 12
v 240 10
v 241 9
v 242 8
v 243 5
v 244 4
v 245 2
v 246 2
v 247 0
v 248 4
v 249 3
v 250 8
v 251 5
v 252 11
v 253 3
v 254 7
v 255 1
v 256 4
v 257 3
v 258 3
v 259 11
v 260 2
v 261 10
v 262 6
v 263 1
v 264 0
v 265 1
v 266 11
v 267 12
v 268 11
v 269 2
v 270 5
v 271 3
v 272 10
v 273 6
v 274 3
v 275 3
v 276 11
v 277 5
v 278 2
v 279 1
v 280 2
v 281 11
v 282 0
v 283 9
v 284 5
v 285 6
v 286 3
v 287 0
v 288 2
v 289 2
v 290 4
v 291 1
v 292 4
v 293 10
v 294 2
v 295 10
v 296 10
v 297 5
v 298 6
v 299 2
v 300 12
v 301 0
v 302 6
v 303 5
v 304 7
v 305 2
v 306 4
v 307 5
v 308 8
v 309 4
v 310 2
v 311 9
v 312 6
v 313 7
v 314 0
v 315 7
v 316 4
v 317 7
v 318 1
v 319 9
v 320 9
v 321 2
v 322 2
v 323 6
v 324 4
v 325 5
v 326 9
v 327 1
v 328 9
v 329 7
v 330 3
v 331 9
v 332 5
v 333 5
v 334 1
v 335 10
v 336 0
v 337 11
v 338 12
v 339 0
v 340 2
v 341 8
v 342 3
v 343 11
v 344 6
v 345 12
v 346 9
v 347 6
v 348 7
v 349 5
v 350 3
v 351 8
v 352 12
v 353 4
v 354 4
v 355 12
v 356 4
v 357 0
v 358 0
v 359 5
v 360 4
v 361 5
v 362 0
v 363 10
v 364 10
v 365 6
v 366 2
v 367 2
v 368 2
v 369 0
v 370 1
v 371 3
v 372 1
v 373 2
v 374 4
v 375 4
v 376 2
v 377 10
v 378 10
v 379 7
v 380 0
v 381 7
v 382 0
v 383 10
v 384 11
v 385 0
v 386 6
v 387 7
v 388 10
v 389 0
v 390 2
v 391 0
v 392 2
v 393 7
v 394 5
v 395 2
v 396 5
v 397 3
v 398 0
v 399 1
v 400 12
v 401 12
v 402 4
v 403 3
v 404 3
v 405 11
v 406 8
v 407 2
v 408 12
v 409 0
v 410 1
v 411 12
v 412 7
v 413 12
v 414 4
v 415 9
v 416 11
v 417 4
v 418 5
v 419 4
v 420 4
v 421 8
v 422 9
v 423 5
v 424 1
v 425 2
v 426 11
v 427 5
v 428 2
v 429 10
v 430 12
v 431 3
v 432 4
v 433 6
v 434 10
v 435 4
v 436 3
v 437 11
v 438 4
v 439 2
v 440 0
v 441 1
v 442 5
v 443 2
v 444 12
v 445 11
v 446 4
v 447 1
v 448 1
v 449 1
v 450 2
v 451 3
v 452 0
v 453 0
v 454 5
v 455 1
v 456 3
v 457 8
v 458 8
v 459 11
v 460 6
v 461 1
v 462 6
v 463 4
v 464 6
v 465 4
v 466 7
v 467 8
v 468 4
v 469 1
v 470 4
v 471 10
v 472 3
v 473 0
v 474 1
v 475 6
v 476 9
v 477 6
v 478 3
v 479 1
v 480 0
v 481 4
v 482 0
v 483 1
v 484 5
v 485 5
v 486 6
v 487 0
v 488 10
v 489 4
v 490 1
v 491 3
v 492 2
v 493 6
v 494 12
v 495 11
v 496 0
v 497 12
v 498 6
v 499 1
v 500 8
